
n_res = 8;
rcap = [30, 29, 26, 26, 1594, 1558, 1643, 1495];
rtype = [1, 1, 1, 1, 2, 2, 2, 2];
n_tasks = 100;
modes =  [{1, 2, 3, 4, 5, 6}, {7, 8, 9, 10, 11, 12}, {13, 14, 15, 16, 17, 18}, {19, 20, 21, 22, 23, 24}, {25, 26, 27, 28, 29, 30}, {31, 32, 33, 34, 35, 36}, {37, 38, 39, 40, 41, 42}, {43, 44, 45, 46, 47, 48}, {49, 50, 51, 52, 53, 54}, {55, 56, 57, 58, 59, 60}, {61, 62, 63, 64, 65, 66}, {67, 68, 69, 70, 71, 72}, {73, 74, 75, 76, 77, 78}, {79, 80, 81, 82, 83, 84}, {85, 86, 87, 88, 89, 90}, {91, 92, 93, 94, 95, 96}, {97, 98, 99, 100, 101, 102}, {103, 104, 105, 106, 107, 108}, {109, 110, 111, 112, 113, 114}, {115, 116, 117, 118, 119, 120}, {121, 122, 123, 124, 125, 126}, {127, 128, 129, 130, 131, 132}, {133, 134, 135, 136, 137, 138}, {139, 140, 141, 142, 143, 144}, {145, 146, 147, 148, 149, 150}, {151, 152, 153, 154, 155, 156}, {157, 158, 159, 160, 161, 162}, {163, 164, 165, 166, 167, 168}, {169, 170, 171, 172, 173, 174}, {175, 176, 177, 178, 179, 180}, {181, 182, 183, 184, 185, 186}, {187, 188, 189, 190, 191, 192}, {193, 194, 195, 196, 197, 198}, {199, 200, 201, 202, 203, 204}, {205, 206, 207, 208, 209, 210}, {211, 212, 213, 214, 215, 216}, {217, 218, 219, 220, 221, 222}, {223, 224, 225, 226, 227, 228}, {229, 230, 231, 232, 233, 234}, {235, 236, 237, 238, 239, 240}, {241, 242, 243, 244, 245, 246}, {247, 248, 249, 250, 251, 252}, {253, 254, 255, 256, 257, 258}, {259, 260, 261, 262, 263, 264}, {265, 266, 267, 268, 269, 270}, {271, 272, 273, 274, 275, 276}, {277, 278, 279, 280, 281, 282}, {283, 284, 285, 286, 287, 288}, {289, 290, 291, 292, 293, 294}, {295, 296, 297, 298, 299, 300}, {301, 302, 303, 304, 305, 306}, {307, 308, 309, 310, 311, 312}, {313, 314, 315, 316, 317, 318}, {319, 320, 321, 322, 323, 324}, {325, 326, 327, 328, 329, 330}, {331, 332, 333, 334, 335, 336}, {337, 338, 339, 340, 341, 342}, {343, 344, 345, 346, 347, 348}, {349, 350, 351, 352, 353, 354}, {355, 356, 357, 358, 359, 360}, {361, 362, 363, 364, 365, 366}, {367, 368, 369, 370, 371, 372}, {373, 374, 375, 376, 377, 378}, {379, 380, 381, 382, 383, 384}, {385, 386, 387, 388, 389, 390}, {391, 392, 393, 394, 395, 396}, {397, 398, 399, 400, 401, 402}, {403, 404, 405, 406, 407, 408}, {409, 410, 411, 412, 413, 414}, {415, 416, 417, 418, 419, 420}, {421, 422, 423, 424, 425, 426}, {427, 428, 429, 430, 431, 432}, {433, 434, 435, 436, 437, 438}, {439, 440, 441, 442, 443, 444}, {445, 446, 447, 448, 449, 450}, {451, 452, 453, 454, 455, 456}, {457, 458, 459, 460, 461, 462}, {463, 464, 465, 466, 467, 468}, {469, 470, 471, 472, 473, 474}, {475, 476, 477, 478, 479, 480}, {481, 482, 483, 484, 485, 486}, {487, 488, 489, 490, 491, 492}, {493, 494, 495, 496, 497, 498}, {499, 500, 501, 502, 503, 504}, {505, 506, 507, 508, 509, 510}, {511, 512, 513, 514, 515, 516}, {517, 518, 519, 520, 521, 522}, {523, 524, 525, 526, 527, 528}, {529, 530, 531, 532, 533, 534}, {535, 536, 537, 538, 539, 540}, {541, 542, 543, 544, 545, 546}, {547, 548, 549, 550, 551, 552}, {553, 554, 555, 556, 557, 558}, {559, 560, 561, 562, 563, 564}, {565, 566, 567, 568, 569, 570}, {571, 572, 573, 574, 575, 576}, {577, 578, 579, 580, 581, 582}, {583, 584, 585, 586, 587, 588}, {589, 590, 591, 592, 593, 594}, {595, 596, 597, 598, 599, 600}];
succ =  [{25, 24, 23, 21, 20, 18, 17, 10}, {31, 30, 28, 25, 23, 22, 21, 19, 17, 13}, {31, 25, 22, 21, 13, 12}, {38, 31, 30, 26, 25, 24, 22, 21, 20, 18}, {35, 31, 30, 27, 24, 23, 22, 20, 16}, {31, 30, 25, 24, 23, 17, 15}, {30, 24, 21, 17, 15}, {38, 36, 31, 30, 29, 28, 27, 26, 25}, {44, 38, 36, 31, 30, 27, 26, 24, 22}, {38, 35, 32, 31, 30, 26, 19}, {38, 34, 33, 32, 31, 29, 28, 21}, {35, 34, 30, 28, 23, 19}, {45, 44, 40, 36, 35, 32, 26, 24}, {45, 38, 30, 24, 21}, {44, 38, 36, 35, 34, 32, 28, 27}, {45, 40, 38, 36, 29, 26}, {48, 40, 37, 35, 32, 26}, {36, 34, 29, 28}, {45, 40, 36, 29, 27}, {44, 42, 37, 34, 28}, {44, 41, 40, 36, 27}, {46, 45, 40, 32, 29}, {48, 44, 41, 40, 39, 38, 37}, {39, 34, 29}, {44, 42, 40, 37, 35}, {43, 42, 39, 34, 33}, {52, 50, 48, 42, 39, 37}, {48, 45, 43, 41, 40, 39}, {48, 42, 41, 37}, {50, 43, 41, 39}, {63, 52, 50, 49, 46, 41}, {52, 50, 43, 41}, {63, 52, 50, 49, 41}, {52, 50, 49, 41}, {50, 49, 46, 41}, {63, 56, 51, 49, 47}, {56, 47, 43}, {69, 58, 52, 50, 49, 47}, {69, 49, 46}, {64, 59, 57, 54, 53, 52, 51}, {56, 51, 47}, {63, 56, 54, 53, 51}, {63, 58, 55, 49}, {63, 56, 47}, {63, 61, 56, 55, 51}, {58, 47}, {64, 60, 55, 54, 53}, {65, 63, 61, 56, 55}, {64, 59, 57, 53}, {75, 74, 71, 70, 66, 65, 62, 61}, {84, 74, 65, 62, 58}, {71, 65, 61, 55}, {75, 74, 71, 67, 66, 65, 62}, {75, 71, 70, 62, 61}, {84, 83, 80, 75, 74, 70, 62}, {84, 73, 70, 69, 67, 66, 64}, {75, 74, 72, 61}, {73, 71, 60}, {84, 80, 77, 70, 68, 67, 66}, {80, 75, 67, 66}, {84, 83, 80, 77, 76, 68, 67}, {76, 73, 72, 68}, {83, 80, 76, 74, 68}, {87, 85, 77, 68}, {83, 81, 80, 78, 73}, {83, 82, 76, 72}, {100, 99, 92, 90, 89, 88, 87, 82, 81, 79}, {100, 92, 90, 82, 81, 79, 78}, {100, 99, 91, 89, 88, 87, 85, 79}, {99, 98, 92, 91, 89, 88, 87, 86, 85}, {99, 98, 92, 91, 89, 88, 86, 85}, {98, 86, 85, 78}, {100, 92, 88, 77}, {100, 92, 91, 90, 88, 79}, {99, 92, 87, 82, 79}, {100, 99, 79}, {99, 91, 79}, {99, 91, 89, 88}, {98, 97, 95, 86}, {99, 98, 95, 86}, {98, 97, 96, 95, 94, 93}, {91, 86}, {100, 97, 96, 94, 93}, {100, 95, 94, 93}, {95, 90}, {96, 94, 93}, {97, 95, 94}, {97, 96}, {97, 93}, {94, 93}, {95}, {93}, {}, {}, {}, {}, {}, {}, {}, {}];
n_opt = 600;
dur = [3, 6, 9, 16, 17, 26, 5, 6, 11, 16, 26, 28, 7, 10, 11, 17, 21, 25, 5, 7, 9, 21, 29, 30, 12, 17, 18, 22, 25, 26, 5, 10, 11, 12, 19, 20, 2, 16, 17, 26, 27, 28, 4, 6, 7, 16, 21, 27, 1, 18, 20, 21, 28, 29, 2, 5, 9, 22, 23, 28, 6, 14, 20, 22, 24, 26, 13, 19, 20, 22, 23, 24, 1, 2, 10, 11, 19, 26, 3, 4, 10, 12, 23, 29, 2, 3, 6, 10, 26, 30, 3, 5, 7, 18, 22, 26, 1, 18, 21, 22, 23, 28, 7, 9, 12, 17, 27, 29, 9, 16, 18, 21, 24, 27, 8, 14, 20, 23, 25, 29, 1, 3, 15, 16, 20, 21, 2, 7, 8, 18, 23, 30, 4, 5, 13, 14, 16, 27, 2, 3, 4, 13, 16, 21, 7, 10, 19, 25, 29, 30, 5, 8, 15, 20, 24, 28, 4, 7, 18, 22, 24, 30, 3, 8, 12, 16, 17, 28, 3, 5, 12, 24, 25, 30, 9, 20, 25, 26, 27, 29, 2, 7, 9, 12, 14, 22, 2, 9, 15, 20, 21, 26, 1, 5, 11, 12, 14, 18, 2, 3, 10, 24, 28, 30, 3, 6, 15, 20, 22, 25, 12, 14, 19, 20, 28, 30, 6, 24, 26, 28, 29, 30, 6, 12, 18, 27, 29, 30, 6, 7, 11, 17, 21, 25, 1, 11, 13, 16, 25, 27, 2, 14, 17, 21, 24, 30, 3, 7, 19, 21, 25, 28, 1, 12, 14, 16, 18, 24, 9, 10, 11, 15, 17, 25, 2, 3, 7, 17, 27, 28, 3, 7, 10, 12, 22, 27, 19, 20, 21, 22, 23, 24, 3, 4, 10, 12, 20, 27, 3, 15, 23, 27, 28, 30, 1, 12, 13, 15, 16, 27, 9, 11, 16, 18, 19, 27, 8, 14, 15, 17, 18, 19, 1, 15, 22, 24, 27, 30, 3, 4, 5, 15, 20, 21, 1, 12, 16, 18, 19, 26, 1, 4, 11, 13, 24, 30, 6, 16, 20, 25, 26, 27, 14, 15, 18, 20, 21, 22, 2, 5, 10, 15, 24, 27, 11, 12, 17, 21, 22, 28, 1, 10, 11, 19, 20, 29, 1, 4, 7, 14, 15, 20, 7, 8, 13, 15, 16, 18, 8, 9, 10, 11, 15, 25, 1, 4, 8, 22, 23, 24, 1, 2, 6, 9, 12, 26, 3, 6, 9, 10, 22, 29, 5, 6, 15, 16, 25, 28, 2, 4, 15, 19, 24, 25, 3, 11, 23, 24, 25, 29, 7, 8, 11, 21, 28, 29, 5, 8, 12, 16, 17, 24, 15, 22, 24, 25, 27, 29, 2, 3, 7, 11, 15, 23, 8, 10, 18, 19, 23, 28, 1, 2, 7, 11, 15, 22, 4, 6, 9, 15, 27, 28, 9, 14, 15, 17, 18, 19, 2, 6, 15, 17, 27, 30, 8, 16, 18, 19, 21, 30, 4, 10, 15, 20, 23, 27, 17, 20, 22, 23, 28, 30, 9, 13, 17, 23, 29, 30, 3, 5, 7, 10, 11, 29, 8, 11, 12, 20, 26, 29, 4, 8, 9, 10, 20, 30, 3, 7, 9, 15, 23, 25, 5, 9, 11, 12, 14, 16, 7, 11, 14, 17, 18, 21, 3, 5, 8, 10, 11, 23, 1, 3, 9, 18, 23, 24, 3, 17, 18, 23, 24, 30, 11, 12, 16, 17, 25, 26, 1, 4, 6, 13, 19, 25, 4, 16, 18, 19, 23, 25, 10, 14, 15, 23, 28, 29, 11, 12, 15, 21, 28, 29, 10, 15, 16, 17, 22, 27, 2, 7, 12, 19, 22, 23, 9, 13, 22, 23, 25, 27];
rreq = [|4, 3, 2, 2, 1, 1, 4, 3, 3, 2, 1, 1, 3, 3, 3, 3, 3, 3, 3, 3, 2, 2, 2, 1, 4, 3, 3, 3, 2, 2, 4, 4, 4, 4, 4, 4, 4, 3, 3, 2, 2, 1, 5, 5, 5, 5, 5, 5, 3, 3, 3, 3, 3, 3, 4, 4, 4, 4, 4, 4, 3, 3, 3, 3, 3, 3, 3, 2, 2, 1, 1, 1, 4, 3, 3, 3, 2, 2, 2, 2, 2, 2, 1, 1, 2, 1, 1, 1, 1, 1, 2, 2, 2, 2, 2, 2, 4, 3, 3, 3, 3, 3, 4, 4, 3, 3, 3, 2, 4, 3, 3, 3, 2, 2, 5, 3, 3, 2, 2, 1, 3, 3, 3, 3, 3, 3, 4, 3, 3, 2, 2, 2, 4, 4, 3, 2, 1, 1, 2, 2, 2, 2, 2, 2, 1, 1, 1, 1, 1, 1, 1, 1, 1, 1, 1, 1, 4, 3, 3, 3, 2, 1, 2, 1, 1, 1, 1, 1, 3, 3, 3, 3, 3, 3, 5, 4, 4, 3, 3, 3, 4, 4, 4, 4, 4, 4, 2, 2, 2, 2, 2, 2, 5, 4, 3, 3, 2, 2, 4, 3, 3, 3, 3, 3, 3, 3, 3, 3, 2, 2, 5, 4, 3, 2, 1, 1, 3, 2, 2, 1, 1, 1, 3, 3, 3, 3, 3, 3, 5, 4, 4, 3, 3, 3, 1, 1, 1, 1, 1, 1, 4, 3, 2, 2, 1, 1, 3, 3, 3, 3, 3, 3, 5, 4, 4, 4, 3, 3, 3, 2, 2, 1, 1, 1, 3, 2, 2, 2, 2, 2, 1, 1, 1, 1, 1, 1, 4, 3, 3, 3, 3, 3, 4, 4, 3, 3, 1, 1, 5, 3, 3, 2, 2, 1, 1, 1, 1, 1, 1, 1, 3, 2, 2, 2, 1, 1, 4, 4, 3, 2, 2, 1, 5, 4, 4, 4, 4, 4, 3, 3, 3, 3, 3, 3, 2, 2, 2, 2, 2, 2, 2, 1, 1, 1, 1, 1, 4, 3, 3, 3, 3, 3, 1, 1, 1, 1, 1, 1, 4, 4, 4, 4, 4, 4, 3, 3, 3, 3, 3, 3, 2, 2, 2, 2, 2, 2, 3, 2, 2, 2, 2, 2, 2, 2, 2, 2, 2, 2, 2, 2, 2, 2, 2, 2, 3, 3, 3, 2, 2, 1, 3, 3, 3, 2, 2, 2, 1, 1, 1, 1, 1, 1, 4, 4, 4, 4, 4, 4, 4, 4, 4, 4, 3, 3, 4, 4, 3, 3, 2, 2, 5, 4, 3, 3, 2, 2, 5, 4, 3, 3, 3, 2, 2, 2, 2, 2, 2, 2, 2, 1, 1, 1, 1, 1, 4, 3, 2, 2, 1, 1, 3, 2, 2, 2, 2, 2, 5, 4, 4, 3, 3, 3, 4, 3, 3, 2, 1, 1, 5, 4, 3, 3, 1, 1, 3, 3, 3, 3, 3, 3, 4, 3, 2, 2, 2, 1, 1, 1, 1, 1, 1, 1, 4, 4, 4, 3, 3, 3, 4, 4, 4, 4, 4, 4, 2, 2, 2, 1, 1, 1, 5, 3, 3, 3, 1, 1, 3, 2, 2, 2, 2, 2, 3, 3, 3, 3, 2, 2, 3, 2, 2, 2, 1, 1, 3, 3, 3, 2, 2, 2, 4, 3, 3, 3, 3, 3, 5, 5, 5, 5, 5, 5, 3, 3, 3, 3, 3, 3, 3, 2, 2, 2, 2, 2, 4, 4, 4, 4, 4, 4, 3, 3, 3, 3, 3, 3, 2, 2, 2, 2, 1, 1, 4, 4, 4, 4, 4, 4, 3, 2, 2, 2, 1, 1, 2, 2, 2, 2, 2, 2
 |4, 3, 3, 2, 2, 2, 4, 4, 4, 4, 4, 4, 4, 4, 4, 4, 4, 4, 4, 4, 4, 4, 3, 3, 4, 3, 3, 3, 1, 1, 2, 2, 2, 2, 1, 1, 2, 2, 2, 2, 2, 2, 1, 1, 1, 1, 1, 1, 5, 4, 4, 3, 3, 3, 4, 4, 4, 4, 4, 4, 5, 4, 3, 3, 2, 2, 5, 4, 4, 3, 3, 2, 1, 1, 1, 1, 1, 1, 3, 2, 2, 2, 2, 2, 4, 4, 4, 3, 3, 3, 1, 1, 1, 1, 1, 1, 4, 3, 3, 3, 3, 3, 4, 4, 4, 3, 3, 3, 3, 3, 3, 3, 3, 3, 4, 3, 3, 3, 2, 2, 3, 3, 3, 3, 3, 3, 4, 4, 3, 3, 1, 1, 5, 3, 3, 3, 2, 1, 2, 2, 2, 2, 2, 2, 5, 4, 4, 3, 3, 3, 4, 3, 3, 3, 2, 2, 4, 4, 4, 4, 3, 3, 2, 2, 2, 2, 2, 2, 4, 4, 4, 4, 4, 4, 2, 1, 1, 1, 1, 1, 4, 3, 2, 2, 2, 1, 2, 2, 2, 2, 2, 2, 1, 1, 1, 1, 1, 1, 5, 5, 5, 5, 5, 5, 1, 1, 1, 1, 1, 1, 5, 3, 3, 2, 1, 1, 5, 4, 4, 3, 3, 3, 2, 2, 2, 2, 2, 2, 1, 1, 1, 1, 1, 1, 4, 4, 4, 4, 3, 3, 5, 4, 4, 3, 3, 3, 4, 3, 2, 2, 2, 1, 4, 3, 2, 2, 1, 1, 3, 2, 2, 2, 2, 2, 3, 3, 3, 2, 2, 1, 5, 4, 4, 4, 4, 4, 2, 1, 1, 1, 1, 1, 3, 3, 3, 2, 1, 1, 2, 2, 2, 2, 2, 2, 5, 5, 5, 5, 5, 5, 4, 4, 4, 4, 4, 4, 4, 3, 3, 3, 3, 3, 5, 4, 3, 3, 3, 2, 5, 4, 4, 4, 4, 4, 3, 3, 3, 3, 2, 2, 5, 3, 3, 3, 2, 1, 3, 2, 2, 2, 2, 2, 5, 4, 4, 4, 4, 4, 4, 4, 3, 2, 1, 1, 4, 4, 4, 3, 3, 3, 4, 3, 3, 3, 3, 3, 4, 3, 3, 2, 2, 2, 4, 4, 4, 4, 4, 4, 4, 4, 4, 3, 3, 3, 3, 3, 3, 3, 3, 3, 5, 4, 4, 3, 3, 2, 1, 1, 1, 1, 1, 1, 5, 3, 3, 2, 2, 1, 2, 2, 2, 2, 2, 2, 5, 4, 4, 4, 3, 3, 4, 4, 3, 3, 3, 2, 2, 2, 2, 1, 1, 1, 4, 3, 3, 2, 1, 1, 5, 4, 4, 4, 4, 4, 2, 2, 2, 2, 2, 2, 5, 4, 4, 3, 3, 3, 4, 4, 3, 3, 2, 2, 3, 3, 3, 2, 2, 2, 4, 3, 3, 2, 2, 1, 2, 2, 2, 2, 1, 1, 5, 5, 5, 5, 5, 5, 1, 1, 1, 1, 1, 1, 4, 4, 4, 4, 4, 4, 2, 2, 2, 2, 2, 2, 2, 2, 2, 1, 1, 1, 4, 4, 4, 4, 4, 4, 4, 4, 3, 2, 2, 1, 5, 4, 4, 4, 4, 4, 5, 4, 4, 3, 3, 3, 5, 3, 3, 2, 1, 1, 1, 1, 1, 1, 1, 1, 4, 3, 3, 3, 3, 3, 3, 2, 2, 2, 1, 1, 3, 2, 2, 2, 2, 2, 5, 5, 5, 5, 5, 5, 4, 4, 4, 4, 3, 3, 3, 2, 2, 1, 1, 1, 3, 3, 3, 3, 3, 3, 5, 5, 5, 5, 5, 5, 4, 4, 4, 3, 2, 2
 |2, 2, 2, 2, 1, 1, 4, 4, 4, 4, 4, 4, 1, 1, 1, 1, 1, 1, 4, 3, 3, 2, 2, 1, 4, 4, 3, 2, 1, 1, 2, 2, 2, 2, 2, 2, 4, 4, 4, 3, 3, 2, 3, 2, 2, 2, 2, 2, 4, 3, 3, 3, 3, 3, 5, 5, 5, 5, 5, 5, 4, 4, 3, 3, 3, 2, 4, 3, 3, 2, 2, 2, 5, 4, 4, 3, 2, 2, 2, 2, 2, 2, 2, 2, 2, 1, 1, 1, 1, 1, 5, 4, 4, 4, 4, 4, 4, 3, 3, 3, 1, 1, 4, 4, 4, 4, 4, 4, 4, 4, 4, 4, 4, 4, 5, 4, 3, 2, 1, 1, 1, 1, 1, 1, 1, 1, 2, 2, 2, 2, 2, 2, 4, 4, 4, 4, 4, 4, 5, 3, 3, 2, 2, 1, 3, 2, 2, 2, 2, 2, 4, 3, 3, 2, 2, 1, 3, 2, 2, 1, 1, 1, 5, 4, 4, 3, 3, 3, 3, 3, 3, 3, 3, 3, 3, 2, 2, 2, 1, 1, 1, 1, 1, 1, 1, 1, 2, 1, 1, 1, 1, 1, 4, 3, 3, 3, 3, 3, 1, 1, 1, 1, 1, 1, 4, 3, 2, 2, 2, 1, 3, 3, 3, 3, 3, 3, 3, 3, 3, 2, 2, 2, 3, 2, 2, 1, 1, 1, 4, 4, 3, 3, 3, 2, 5, 4, 4, 4, 4, 4, 4, 3, 3, 2, 1, 1, 5, 3, 3, 2, 2, 1, 3, 2, 2, 2, 2, 2, 5, 5, 5, 5, 5, 5, 3, 3, 3, 2, 2, 2, 2, 2, 2, 2, 2, 2, 4, 4, 4, 3, 3, 3, 4, 4, 3, 2, 1, 1, 3, 2, 2, 1, 1, 1, 2, 1, 1, 1, 1, 1, 2, 2, 2, 2, 2, 2, 4, 4, 4, 4, 4, 4, 4, 3, 3, 2, 2, 1, 5, 4, 3, 3, 3, 2, 1, 1, 1, 1, 1, 1, 5, 4, 4, 3, 3, 3, 4, 3, 3, 3, 2, 1, 3, 3, 3, 3, 3, 3, 4, 3, 3, 3, 2, 2, 3, 3, 3, 2, 2, 2, 2, 1, 1, 1, 1, 1, 5, 5, 5, 5, 5, 5, 4, 3, 3, 3, 2, 2, 2, 2, 2, 1, 1, 1, 3, 3, 3, 3, 3, 3, 3, 2, 2, 2, 2, 2, 1, 1, 1, 1, 1, 1, 5, 4, 4, 4, 3, 3, 1, 1, 1, 1, 1, 1, 4, 3, 3, 2, 1, 1, 3, 3, 3, 3, 3, 3, 4, 3, 3, 2, 1, 1, 5, 4, 4, 4, 3, 3, 3, 2, 2, 1, 1, 1, 4, 3, 3, 3, 3, 3, 4, 3, 3, 3, 2, 1, 3, 2, 2, 2, 2, 2, 2, 2, 2, 2, 2, 2, 4, 3, 3, 3, 3, 3, 5, 4, 3, 2, 2, 1, 3, 3, 3, 2, 2, 2, 4, 3, 2, 2, 2, 1, 4, 4, 4, 3, 3, 3, 4, 4, 3, 3, 2, 2, 3, 3, 3, 2, 2, 2, 5, 4, 4, 4, 4, 4, 4, 4, 4, 4, 4, 4, 4, 3, 2, 2, 1, 1, 2, 2, 2, 2, 2, 2, 4, 3, 3, 2, 2, 1, 4, 4, 4, 3, 2, 2, 4, 4, 4, 4, 4, 4, 3, 3, 3, 3, 2, 2, 3, 3, 3, 3, 3, 3, 4, 4, 3, 3, 2, 2, 4, 3, 3, 2, 2, 2, 3, 3, 3, 3, 3, 3, 1, 1, 1, 1, 1, 1, 5, 5, 5, 5, 5, 5, 3, 3, 2, 2, 2, 1
 |3, 3, 3, 3, 3, 3, 4, 3, 3, 2, 1, 1, 3, 3, 2, 2, 1, 1, 3, 3, 3, 3, 3, 3, 5, 4, 3, 2, 1, 1, 3, 2, 2, 1, 1, 1, 4, 4, 4, 4, 4, 4, 3, 2, 2, 2, 2, 2, 2, 2, 2, 2, 2, 2, 3, 3, 3, 3, 2, 2, 2, 2, 2, 1, 1, 1, 4, 4, 4, 4, 4, 4, 3, 3, 3, 3, 2, 2, 2, 2, 2, 2, 1, 1, 3, 3, 2, 2, 2, 1, 4, 4, 4, 4, 4, 4, 1, 1, 1, 1, 1, 1, 5, 4, 4, 3, 2, 2, 4, 3, 3, 2, 1, 1, 4, 4, 4, 4, 4, 4, 4, 4, 4, 3, 3, 3, 1, 1, 1, 1, 1, 1, 4, 3, 3, 3, 2, 2, 2, 1, 1, 1, 1, 1, 4, 4, 4, 3, 2, 2, 3, 3, 3, 3, 3, 3, 2, 1, 1, 1, 1, 1, 3, 3, 3, 3, 2, 2, 5, 4, 4, 4, 3, 3, 2, 2, 2, 2, 2, 2, 5, 4, 3, 2, 1, 1, 4, 4, 4, 4, 4, 4, 5, 4, 3, 2, 2, 1, 5, 4, 4, 4, 4, 4, 4, 4, 4, 3, 3, 2, 4, 4, 3, 2, 2, 1, 4, 4, 4, 4, 4, 4, 4, 4, 3, 3, 3, 2, 4, 4, 4, 4, 4, 4, 3, 3, 3, 3, 2, 2, 4, 4, 3, 3, 2, 1, 5, 3, 3, 2, 2, 1, 5, 3, 3, 2, 1, 1, 4, 4, 3, 3, 2, 2, 3, 2, 2, 2, 2, 2, 5, 5, 5, 5, 5, 5, 4, 4, 4, 4, 4, 4, 4, 3, 3, 3, 3, 3, 4, 4, 3, 3, 3, 2, 3, 3, 3, 2, 2, 2, 4, 4, 4, 4, 3, 3, 5, 4, 4, 4, 4, 4, 4, 4, 4, 3, 2, 2, 4, 3, 3, 2, 2, 1, 2, 1, 1, 1, 1, 1, 1, 1, 1, 1, 1, 1, 4, 3, 2, 2, 1, 1, 3, 2, 2, 2, 1, 1, 2, 2, 2, 1, 1, 1, 1, 1, 1, 1, 1, 1, 2, 2, 2, 2, 2, 2, 4, 4, 4, 4, 3, 3, 4, 3, 3, 3, 3, 3, 3, 3, 2, 2, 1, 1, 2, 1, 1, 1, 1, 1, 5, 5, 5, 5, 5, 5, 4, 4, 3, 2, 2, 1, 2, 2, 2, 2, 2, 2, 3, 3, 2, 2, 1, 1, 1, 1, 1, 1, 1, 1, 3, 2, 2, 1, 1, 1, 3, 3, 3, 2, 1, 1, 5, 4, 4, 3, 2, 2, 4, 4, 4, 3, 3, 3, 4, 4, 3, 3, 3, 2, 2, 1, 1, 1, 1, 1, 3, 3, 3, 2, 2, 2, 1, 1, 1, 1, 1, 1, 4, 3, 3, 2, 2, 2, 5, 5, 5, 5, 5, 5, 5, 4, 3, 3, 3, 2, 4, 4, 4, 3, 3, 3, 4, 4, 3, 3, 3, 2, 3, 3, 3, 3, 3, 3, 5, 4, 3, 3, 2, 2, 4, 4, 4, 3, 3, 2, 3, 3, 3, 2, 2, 2, 3, 3, 3, 3, 2, 2, 2, 2, 2, 1, 1, 1, 4, 3, 3, 2, 2, 1, 3, 3, 3, 3, 3, 3, 5, 4, 4, 4, 4, 4, 4, 3, 2, 2, 1, 1, 5, 3, 3, 3, 2, 1, 1, 1, 1, 1, 1, 1, 4, 4, 4, 4, 4, 4, 3, 2, 2, 2, 2, 2, 4, 3, 3, 2, 2, 2, 3, 3, 2, 2, 2, 1, 4, 4, 3, 2, 2, 1
 |27, 22, 22, 19, 16, 16, 16, 14, 13, 11, 8, 8, 19, 17, 15, 15, 13, 12, 17, 16, 15, 12, 9, 7, 21, 19, 17, 9, 8, 1, 28, 27, 27, 27, 27, 27, 25, 19, 19, 15, 10, 9, 27, 26, 25, 24, 23, 23, 30, 28, 26, 24, 22, 20, 24, 21, 17, 16, 13, 10, 15, 14, 14, 12, 12, 10, 29, 23, 20, 15, 14, 11, 12, 12, 10, 7, 5, 2, 23, 20, 15, 12, 5, 4, 20, 17, 12, 10, 8, 4, 14, 13, 13, 11, 10, 10, 26, 26, 26, 25, 25, 24, 20, 19, 19, 18, 16, 16, 15, 13, 12, 10, 9, 8, 25, 19, 16, 13, 10, 5, 26, 25, 24, 22, 21, 20, 28, 22, 20, 19, 14, 13, 18, 18, 15, 14, 11, 10, 27, 25, 19, 17, 12, 9, 18, 15, 13, 13, 12, 9, 10, 8, 7, 6, 4, 3, 17, 13, 13, 10, 4, 2, 21, 20, 19, 16, 14, 13, 26, 21, 18, 18, 15, 11, 30, 25, 23, 21, 18, 17, 16, 15, 15, 14, 14, 14, 7, 7, 7, 6, 6, 6, 17, 17, 16, 14, 12, 11, 28, 27, 24, 22, 20, 16, 28, 26, 26, 23, 23, 22, 19, 17, 14, 13, 9, 5, 29, 24, 24, 21, 18, 16, 27, 27, 26, 25, 24, 22, 12, 11, 9, 8, 6, 5, 22, 19, 18, 14, 10, 6, 23, 21, 21, 21, 20, 19, 10, 9, 9, 8, 7, 6, 20, 19, 19, 17, 16, 16, 23, 18, 16, 11, 9, 8, 20, 16, 12, 9, 6, 2, 20, 15, 15, 9, 7, 5, 11, 10, 10, 10, 9, 9, 21, 20, 19, 16, 15, 15, 14, 11, 10, 7, 6, 5, 18, 18, 18, 17, 16, 16, 13, 11, 11, 8, 7, 5, 7, 6, 6, 5, 5, 4, 18, 17, 16, 15, 14, 13, 24, 22, 20, 17, 16, 12, 22, 19, 19, 13, 11, 6, 7, 6, 6, 5, 4, 3, 17, 16, 15, 13, 12, 9, 26, 26, 24, 23, 22, 21, 22, 21, 21, 21, 20, 20, 23, 20, 16, 11, 8, 6, 30, 27, 25, 23, 21, 21, 27, 25, 22, 21, 19, 18, 26, 25, 25, 24, 24, 24, 16, 15, 15, 14, 13, 12, 17, 16, 13, 11, 11, 9, 28, 24, 22, 22, 17, 15, 19, 18, 17, 17, 16, 15, 30, 27, 26, 25, 24, 24, 24, 21, 19, 16, 12, 7, 23, 19, 16, 16, 12, 12, 15, 12, 10, 9, 8, 5, 20, 19, 18, 17, 17, 15, 27, 25, 17, 16, 9, 7, 24, 24, 22, 22, 19, 18, 8, 7, 7, 7, 6, 6, 10, 8, 6, 5, 5, 3, 20, 20, 18, 18, 17, 15, 23, 22, 19, 13, 11, 8, 26, 22, 19, 15, 14, 10, 29, 26, 24, 22, 21, 20, 8, 7, 7, 6, 6, 5, 20, 17, 15, 14, 12, 11, 25, 25, 24, 23, 21, 21, 26, 22, 19, 16, 14, 11, 22, 21, 18, 17, 14, 12, 24, 22, 20, 18, 16, 14, 28, 26, 22, 20, 18, 14, 18, 16, 16, 14, 12, 11, 20, 16, 15, 12, 12, 9, 11, 10, 10, 9, 8, 6, 24, 24, 20, 17, 15, 14, 28, 24, 20, 17, 15, 12, 17, 16, 11, 10, 6, 3, 12, 10, 9, 9, 6, 5, 17, 15, 14, 14, 13, 12, 16, 16, 15, 14, 12, 11, 12, 12, 11, 11, 10, 9, 5, 4, 4, 4, 4, 4, 24, 23, 22, 20, 19, 18, 27, 26, 25, 25, 24, 22
 |28, 27, 25, 24, 23, 23, 13, 13, 12, 12, 11, 11, 21, 20, 19, 18, 16, 16, 5, 5, 5, 4, 4, 4, 14, 11, 8, 7, 4, 1, 17, 16, 15, 14, 12, 11, 11, 10, 7, 5, 3, 3, 21, 18, 12, 10, 6, 6, 26, 23, 22, 18, 15, 12, 4, 4, 3, 3, 2, 2, 26, 25, 17, 14, 10, 8, 24, 24, 23, 23, 23, 22, 14, 11, 11, 8, 8, 7, 24, 23, 23, 23, 22, 22, 8, 7, 6, 5, 4, 2, 15, 15, 15, 15, 15, 15, 22, 19, 16, 13, 11, 9, 1, 1, 1, 1, 1, 1, 27, 26, 24, 23, 23, 22, 22, 21, 15, 13, 10, 5, 27, 25, 23, 22, 18, 16, 28, 26, 25, 24, 23, 22, 11, 9, 9, 7, 6, 4, 23, 19, 18, 11, 9, 5, 18, 14, 11, 11, 7, 4, 13, 11, 11, 10, 9, 7, 27, 21, 18, 18, 14, 9, 25, 24, 22, 22, 20, 20, 24, 21, 20, 17, 16, 13, 26, 26, 24, 24, 23, 22, 22, 18, 15, 13, 9, 6, 13, 12, 12, 12, 12, 12, 30, 27, 23, 22, 19, 17, 27, 19, 17, 13, 9, 5, 26, 23, 21, 19, 17, 17, 25, 23, 23, 20, 19, 18, 10, 10, 9, 8, 7, 7, 30, 29, 29, 29, 29, 29, 19, 19, 19, 19, 18, 18, 27, 24, 22, 21, 18, 13, 8, 8, 6, 6, 4, 3, 10, 9, 9, 7, 6, 6, 9, 8, 8, 8, 8, 8, 21, 21, 21, 21, 21, 21, 28, 23, 20, 12, 8, 4, 27, 24, 23, 22, 21, 18, 18, 17, 17, 16, 15, 15, 23, 21, 18, 18, 13, 11, 28, 24, 19, 16, 9, 7, 30, 28, 26, 23, 23, 20, 18, 16, 14, 12, 11, 10, 22, 21, 20, 20, 19, 18, 29, 28, 25, 23, 21, 20, 25, 23, 23, 23, 22, 21, 14, 13, 12, 12, 11, 10, 28, 24, 24, 21, 20, 19, 24, 23, 23, 23, 23, 23, 18, 18, 18, 18, 18, 18, 22, 22, 19, 17, 16, 14, 19, 18, 16, 16, 14, 12, 14, 14, 14, 14, 14, 14, 20, 18, 15, 12, 9, 9, 12, 10, 9, 7, 5, 4, 22, 18, 17, 15, 13, 12, 13, 11, 7, 7, 5, 3, 14, 12, 9, 7, 5, 4, 24, 20, 20, 18, 14, 12, 28, 26, 22, 21, 16, 13, 5, 4, 4, 4, 2, 2, 6, 6, 6, 6, 6, 6, 24, 23, 22, 21, 19, 18, 20, 17, 16, 12, 10, 7, 21, 16, 16, 13, 9, 7, 23, 18, 15, 14, 12, 9, 20, 18, 18, 13, 13, 11, 29, 27, 24, 22, 20, 18, 17, 17, 16, 15, 14, 12, 12, 11, 8, 8, 6, 5, 14, 13, 12, 12, 11, 11, 14, 13, 12, 10, 9, 9, 16, 15, 14, 12, 12, 10, 21, 19, 19, 16, 14, 13, 26, 25, 21, 19, 16, 16, 20, 19, 16, 13, 10, 9, 29, 28, 26, 26, 24, 23, 12, 12, 11, 9, 8, 8, 14, 12, 11, 10, 9, 8, 11, 9, 9, 8, 6, 5, 19, 18, 17, 16, 14, 13, 21, 20, 19, 18, 17, 16, 6, 5, 5, 4, 4, 4, 19, 19, 16, 15, 13, 11, 27, 24, 23, 20, 18, 18, 10, 9, 9, 8, 8, 7, 13, 9, 7, 5, 4, 1, 28, 23, 16, 16, 7, 4, 21, 19, 18, 16, 16, 15, 21, 19, 19, 17, 17, 16, 28, 27, 27, 27, 27, 27, 26, 25, 17, 17, 9, 7
 |20, 16, 14, 12, 8, 6, 24, 21, 18, 13, 10, 8, 28, 27, 22, 19, 18, 15, 27, 23, 19, 16, 15, 10, 12, 11, 11, 11, 10, 10, 27, 26, 25, 23, 23, 21, 19, 19, 17, 17, 15, 15, 14, 13, 13, 12, 11, 11, 26, 24, 22, 19, 18, 15, 18, 18, 17, 17, 16, 16, 25, 25, 25, 24, 23, 23, 26, 24, 19, 16, 14, 12, 29, 24, 18, 18, 10, 7, 24, 23, 23, 23, 23, 23, 23, 20, 19, 16, 14, 11, 1, 1, 1, 1, 1, 1, 23, 21, 15, 12, 9, 7, 8, 8, 7, 7, 7, 6, 11, 10, 9, 9, 8, 7, 15, 14, 14, 13, 13, 13, 19, 18, 18, 17, 16, 16, 28, 28, 28, 27, 26, 26, 29, 27, 27, 27, 25, 25, 16, 16, 12, 11, 9, 8, 22, 17, 16, 14, 8, 6, 28, 23, 20, 18, 17, 13, 24, 24, 18, 15, 5, 2, 14, 13, 11, 10, 9, 9, 3, 3, 3, 3, 3, 3, 21, 21, 21, 21, 21, 21, 19, 19, 16, 13, 10, 7, 22, 19, 16, 13, 10, 7, 29, 27, 24, 22, 19, 16, 24, 23, 22, 22, 22, 21, 25, 24, 23, 23, 22, 21, 30, 28, 28, 26, 26, 25, 29, 27, 27, 26, 25, 25, 29, 29, 29, 29, 29, 29, 19, 18, 18, 18, 16, 16, 23, 22, 15, 14, 7, 2, 24, 20, 16, 14, 9, 1, 23, 22, 22, 22, 22, 22, 21, 20, 20, 19, 17, 17, 24, 23, 23, 23, 22, 22, 20, 18, 16, 16, 13, 12, 13, 13, 11, 11, 9, 9, 24, 20, 17, 11, 7, 5, 27, 25, 24, 23, 22, 22, 23, 21, 20, 20, 19, 17, 25, 25, 25, 25, 25, 25, 16, 14, 11, 10, 7, 6, 27, 26, 26, 25, 22, 21, 23, 23, 21, 18, 16, 13, 27, 25, 22, 20, 18, 13, 23, 20, 17, 16, 13, 11, 13, 11, 11, 9, 9, 8, 22, 21, 16, 14, 11, 7, 7, 5, 5, 4, 3, 1, 4, 3, 3, 3, 1, 1, 24, 21, 19, 16, 15, 13, 25, 21, 19, 15, 11, 11, 29, 27, 27, 26, 23, 23, 30, 28, 24, 23, 21, 20, 26, 26, 25, 24, 23, 22, 28, 27, 27, 24, 24, 22, 23, 21, 16, 14, 9, 4, 7, 7, 6, 6, 4, 4, 29, 28, 26, 26, 23, 23, 23, 19, 18, 14, 14, 10, 19, 18, 15, 13, 8, 6, 24, 22, 19, 15, 12, 12, 24, 23, 22, 22, 20, 19, 27, 25, 21, 19, 17, 17, 4, 4, 4, 4, 4, 4, 27, 22, 18, 17, 12, 10, 11, 9, 9, 8, 7, 7, 26, 23, 19, 17, 14, 8, 27, 26, 24, 22, 20, 19, 12, 12, 10, 10, 8, 8, 25, 25, 25, 25, 25, 25, 11, 10, 9, 8, 6, 6, 18, 18, 18, 17, 17, 17, 14, 14, 14, 13, 13, 13, 11, 9, 7, 6, 4, 3, 4, 4, 3, 3, 1, 1, 23, 22, 14, 14, 8, 2, 20, 19, 19, 18, 18, 18, 12, 12, 11, 11, 10, 9, 5, 5, 5, 5, 5, 5, 24, 24, 24, 23, 23, 22, 29, 28, 28, 27, 27, 27, 28, 26, 24, 23, 21, 21, 6, 6, 5, 3, 2, 1, 6, 6, 5, 3, 3, 2, 16, 12, 12, 10, 8, 5, 14, 13, 13, 12, 12, 12, 27, 27, 27, 27, 27, 27, 10, 7, 6, 5, 5, 4, 14, 14, 9, 6, 6, 3, 25, 24, 21, 15, 12, 7
 |29, 27, 27, 25, 24, 24, 24, 24, 24, 24, 24, 24, 26, 26, 21, 18, 17, 12, 27, 22, 19, 16, 13, 9, 19, 15, 14, 11, 7, 6, 17, 17, 17, 16, 15, 15, 16, 14, 13, 11, 10, 8, 24, 19, 19, 17, 14, 11, 26, 22, 20, 17, 15, 10, 9, 9, 7, 6, 6, 5, 18, 14, 14, 13, 9, 9, 18, 15, 11, 8, 4, 4, 20, 19, 17, 11, 11, 5, 26, 21, 20, 15, 13, 10, 20, 18, 12, 8, 7, 4, 28, 22, 21, 14, 10, 9, 23, 21, 17, 15, 9, 7, 19, 14, 12, 10, 7, 2, 14, 13, 13, 13, 12, 12, 5, 4, 4, 4, 3, 2, 28, 27, 26, 25, 24, 24, 2, 2, 2, 2, 1, 1, 13, 12, 12, 11, 11, 11, 8, 7, 6, 4, 3, 1, 26, 25, 23, 21, 16, 15, 28, 24, 20, 20, 18, 14, 30, 28, 28, 26, 25, 25, 14, 12, 9, 6, 6, 4, 23, 22, 20, 19, 18, 17, 29, 28, 27, 27, 25, 25, 18, 14, 12, 11, 7, 6, 23, 19, 14, 10, 9, 5, 16, 15, 12, 10, 9, 8, 7, 7, 7, 6, 6, 6, 22, 20, 17, 14, 12, 8, 30, 29, 29, 28, 28, 28, 29, 28, 28, 28, 27, 27, 10, 10, 9, 7, 6, 6, 10, 8, 7, 5, 4, 3, 29, 20, 20, 15, 9, 4, 15, 14, 13, 12, 11, 10, 23, 18, 14, 11, 7, 3, 17, 17, 15, 14, 14, 13, 12, 11, 10, 6, 4, 4, 14, 11, 11, 6, 3, 1, 19, 15, 14, 12, 11, 9, 12, 11, 9, 7, 7, 6, 16, 16, 12, 12, 9, 7, 23, 22, 21, 21, 20, 19, 23, 22, 21, 20, 19, 18, 17, 16, 13, 9, 8, 5, 24, 24, 24, 23, 23, 23, 28, 27, 27, 27, 26, 25, 12, 12, 9, 7, 5, 3, 24, 24, 24, 23, 23, 23, 22, 21, 20, 20, 20, 19, 11, 9, 8, 7, 7, 6, 19, 18, 15, 14, 12, 10, 23, 20, 19, 17, 15, 13, 11, 10, 10, 9, 6, 5, 29, 27, 25, 25, 22, 21, 26, 26, 26, 25, 25, 25, 17, 11, 10, 7, 4, 1, 26, 25, 24, 23, 21, 21, 16, 16, 16, 16, 16, 16, 2, 1, 1, 1, 1, 1, 11, 11, 10, 10, 8, 8, 12, 11, 11, 10, 9, 7, 30, 25, 24, 22, 19, 17, 14, 14, 10, 9, 5, 5, 22, 18, 15, 13, 10, 9, 15, 15, 15, 15, 15, 15, 13, 11, 10, 9, 8, 7, 25, 24, 22, 21, 20, 18, 23, 20, 19, 19, 16, 15, 18, 16, 15, 12, 6, 6, 24, 19, 18, 17, 12, 12, 23, 21, 21, 21, 19, 19, 16, 16, 14, 14, 11, 10, 19, 19, 13, 9, 8, 4, 21, 17, 15, 13, 9, 5, 25, 18, 15, 14, 10, 7, 4, 3, 3, 3, 3, 3, 18, 18, 18, 18, 18, 18, 14, 12, 11, 11, 10, 9, 12, 10, 9, 6, 5, 2, 24, 24, 23, 23, 21, 21, 20, 17, 15, 13, 11, 10, 26, 25, 25, 24, 23, 21, 20, 16, 13, 11, 8, 5, 10, 8, 6, 5, 4, 2, 15, 14, 14, 13, 13, 13, 23, 20, 19, 18, 16, 16, 9, 8, 7, 7, 5, 5, 22, 20, 20, 18, 17, 16, 19, 17, 17, 17, 16, 15, 20, 19, 13, 9, 8, 1, 4, 3, 3, 3, 2, 3, 23, 19, 19, 13, 9, 5, 29, 27, 25, 23, 22, 20|];